GeneratedTests/Random_12/Random_12_4.tsp
NAME: Random_12_4
TYPE: TSP
DIMENSION: 12
EDGE_WEIGHT_TYPE: EUC_2D
NODE_COORD_SECTION
1 15.518528 23.06413
2 29.04531 18.869308
3 3.865591 18.317642
4 31.888987 34.66335
5 31.315683 18.430134
6 20.875935 14.710968
7 21.847212 29.472015
8 16.189423 20.27474
9 14.599809 10.823305
10 20.46355 21.5411
11 2.9766598 0.97365046
12 4.111558 28.276892
EOF
