GeneratedTests/Random_12/Random_12_4.txt
NAME: Random_12_4
TYPE: TSP
DIMENSION: 12
EDGE_WEIGHT_TYPE: EUC_2D
NODE_COORD_SECTION
1 7.5329776 32.96357
2 32.539886 22.680292
3 34.760242 26.37124
4 22.147198 15.178151
5 21.578625 5.8740396
6 20.339123 4.275345
7 3.741173 17.359398
8 12.699564 35.04386
9 35.43318 1.8418665
10 35.5337 24.417315
11 23.099298 34.67535
12 15.981485 15.805447
EOF
